(set-info :Origin "This instance was generated by: BanditFuzz-- an RL fuzzer for SMT solvers" )
(set-info :Author "Joe Scott, Fed Mora, Vijay Ganesh" )
(set-info :Contact "Joe Scott, joseph.scott@uwaterloo.ca")
(set-logic QF_BV)
(declare-const bool_0 Bool)
(declare-const bool_1 Bool)
(declare-const bool_2 Bool)
(declare-const bool_3 Bool)
(declare-const bool_4 Bool)
(declare-const bv_0 (_ BitVec 32))
(declare-const bv_1 (_ BitVec 32))
(declare-const bv_2 (_ BitVec 32))
(declare-const bv_3 (_ BitVec 32))
(declare-const bv_4 (_ BitVec 32))
(assert (bvsle (bvor (bvxor bv_0 #x532f80f5 ) (bvashr bv_1 bv_3)) (bvxor (bvsub #x3af25765  bv_3) (bvadd #x2edc2754  #x0c4a3eca ))))
(assert (xor (and (bvsgt bv_1 #x3adf3839 ) (not bool_1)) (not (bvule #xa2c604fb  bv_1))))
(assert (bvule (bvsmod (bvsub #x9c1f4993  #xe4a6aa42 ) (bvnor bv_0 #xff5b3a4e )) (bvxor (bvsrem #x682ae0f1  #xee815852 ) (bvxor #x27678c36  bv_4))))
(assert (bvsgt (bvmul (bvurem bv_2 #x650935ba ) (bvudiv #x4af0a103  #x6b976ba4 )) (bvor (bvand #xccf71822  #xbe4c8fe7 ) (bvadd #x92bf9f34  bv_1))))
(assert (or (or (bvult #x9243e67d  #x6d57e54e ) (bvsle #x7596f9cf  bv_1)) (or (bvugt bv_2 bv_4) (bvugt bv_3 #x1fee16f7 ))))
(check-sat)
(exit)
